units           metal
atom_style      atomic
boundary        p p p

read_data       perfect_512.dat

mass            1 28.0855

pair_style      sw
pair_coeff      * * Si.sw Si

neighbor        2.0 bin
neigh_modify    delay 0 every 1 check yes

variable        xi equal 0.50*lx
variable        yi equal 0.37*ly
variable        zi equal 0.23*lz
create_atoms    1 single ${xi} ${yi} ${zi} units box

thermo          10
thermo_style    custom step atoms pe

min_style       cg
minimize        1.0e-6 1.0e-8 2000 20000

write_data      starting_config_1int_relaxed.dat

